letting n =  10
letting blocks =  [[1, 2], [1, 3], [1, 5], [1, 6], [1, 8], [1, 10], [2, 1], [2, 2], [2, 3], [2, 7], [2, 8], [2, 9], [3, 3], [3, 5], [3, 9], [4, 1], [4, 3], [4, 5], [4, 6], [4, 8], [4, 10], [5, 5], [5, 6], [5, 7], [5, 8], [6, 2], [6, 6], [6, 8], [7, 2], [7, 4], [7, 5], [7, 8], [7, 9], [7, 10], [8, 2], [8, 3], [8, 4], [8, 6], [8, 9], [8, 10], [9, 1], [9, 4], [9, 7], [9, 9], [9, 10], [10, 2], [10, 3], [10, 4], [10, 5], [10, 10]]
